
Gurobi 6.5.2 (win64) logging started 07/23/16 02:53:39


Gurobi 6.5.2 (win64) logging started 07/23/16 02:53:39

Optimize a model with 13260 rows, 745 columns and 27173 nonzeros
Coefficient statistics:
  Matrix range    [1e+00, 1e+00]
  Objective range [7e+00, 5e+01]
  Bounds range    [1e+00, 1e+00]
  RHS range       [1e+00, 1e+00]
Found heuristic solution: objective -0
Presolve removed 13096 rows and 147 columns
Presolve time: 0.01s
Presolved: 164 rows, 598 columns, 2047 nonzeros
Variable types: 0 continuous, 598 integer (598 binary)

Root relaxation: objective 5.670000e+02, 117 iterations, 0.00 seconds

    Nodes    |    Current Node    |     Objective Bounds      |     Work
 Expl Unexpl |  Obj  Depth IntInf | Incumbent    BestBd   Gap | It/Node Time

*    0     0               0     567.0000000  567.00000  0.00%     -    0s

Explored 0 nodes (117 simplex iterations) in 0.02 seconds
Thread count was 8 (of 8 available processors)

Optimal solution found (tolerance 1.00e-04)
Best objective 5.670000000000e+02, best bound 5.670000000000e+02, gap 0.0%

Wrote requested result file 'H2\instance15\\Results15.lp'

